c A SAT instance generated from a 3-CNF formula that had 30 clauses and 10 variables
p cnf 10 30
-3 -4 2 0
-8 -9 1 0
2 6 7 0
2 6 7 0
-4 -5 7 0
4 -6 -7 0
-10 7 -9 0
6 -9 3 0
-5 -10 2 0
10 -3 -4 0
-10 8 5 0
-9 4 -7 0
9 1 6 0
1 2 -7 0
-6 -7 9 0
3 -4 8 0
7 -10 -5 0
5 -6 1 0
-7 -3 -9 0
-9 3 -6 0
1 -6 -7 0
5 10 8 0
2 9 4 0
-4 10 5 0
8 3 2 0
3 4 1 0
8 -3 6 0
-6 7 -5 0
7 1 2 0
-8 -10 9 0
